
Gurobi 10.0.1 (linux64) logging started Sun Nov 26 16:04:23 2023

Set parameter LogFile to value "ArtificialInstance/ExperimentV2/S2T5K3/AdRo/gurobiDoRo59.txt"
Gurobi Optimizer version 10.0.1 build v10.0.1rc0 (linux64)

CPU model: AMD EPYC 7H12 64-Core Processor, instruction set [SSE2|AVX|AVX2]
Thread count: 128 physical cores, 128 logical processors, using up to 32 threads

Academic license 656792 - for non-commercial use only - registered to b.___@student.vu.nl
Optimize a model with 16352 rows, 15139 columns and 58980 nonzeros
Model fingerprint: 0x91b4ae92
Variable types: 1 continuous, 15138 integer (15138 binary)
Coefficient statistics:
  Matrix range     [1e+00, 4e+01]
  Objective range  [1e+00, 2e+01]
  Bounds range     [1e+00, 1e+00]
  RHS range        [1e+00, 1e+00]
Presolve removed 9040 rows and 8466 columns
Presolve time: 0.30s
Presolved: 7312 rows, 6673 columns, 25928 nonzeros
Variable types: 1 continuous, 6672 integer (6672 binary)
Found heuristic solution: objective 100.2173529

Root relaxation: cutoff, 1652 iterations, 0.06 seconds (0.03 work units)

    Nodes    |    Current Node    |     Objective Bounds      |     Work
 Expl Unexpl |  Obj  Depth IntInf | Incumbent    BestBd   Gap | It/Node Time

     0     0     cutoff    0       100.21735  100.21735  0.00%     -    0s

Explored 1 nodes (1652 simplex iterations) in 0.46 seconds (0.32 work units)
Thread count was 32 (of 128 available processors)

Solution count 1: 100.217 

Optimal solution found (tolerance 1.00e-04)
Best objective 1.002173528959e+02, best bound 1.002173528959e+02, gap 0.0000%
